p edge 220 219 98
e 1 5
e 2 20
e 2 83
e 2 107
e 2 187
e 2 158
e 3 22
e 3 24
e 3 66
e 4 35
e 4 122
e 4 168
e 5 12
e 5 140
e 6 179
e 6 83
e 7 26
e 7 117
e 7 122
e 8 153
e 8 17
e 9 208
e 10 213
e 11 79
e 11 218
e 12 47
e 13 115
e 14 93
e 14 107
e 15 213
e 15 71
e 16 106
e 16 110
e 17 86
e 18 109
e 18 89
e 18 180
e 19 27
e 19 31
e 19 195
e 21 131
e 21 71
e 21 180
e 21 31
e 23 32
e 24 113
e 24 116
e 25 169
e 26 204
e 28 94
e 28 80
e 29 74
e 29 135
e 29 33
e 30 43
e 32 33
e 33 170
e 33 65
e 33 73
e 34 168
e 34 219
e 35 124
e 36 59
e 36 92
e 36 64
e 37 205
e 37 207
e 38 174
e 38 202
e 39 186
e 40 134
e 41 196
e 42 72
e 42 200
e 42 98
e 43 88
e 43 149
e 43 143
e 43 81
e 44 135
e 45 101
e 46 159
e 47 177
e 47 210
e 47 130
e 48 146
e 48 93
e 49 121
e 50 105
e 50 147
e 51 144
e 52 152
e 52 91
e 53 172
e 53 58
e 53 65
e 54 64
e 54 220
e 55 197
e 55 62
e 55 152
e 56 129
e 57 217
e 57 73
e 58 190
e 60 78
e 61 73
e 62 73
e 63 101
e 64 86
e 66 127
e 67 126
e 67 173
e 67 152
e 68 101
e 68 114
e 68 169
e 68 103
e 68 201
e 69 220
e 70 98
e 70 150
e 74 76
e 75 136
e 75 185
e 76 132
e 77 203
e 77 175
e 78 128
e 78 94
e 79 133
e 80 158
e 80 86
e 81 135
e 82 101
e 83 163
e 84 219
e 85 194
e 87 108
e 89 111
e 89 147
e 89 192
e 90 211
e 90 96
e 91 182
e 95 149
e 96 182
e 97 186
e 97 128
e 98 145
e 99 139
e 99 127
e 99 107
e 100 196
e 100 145
e 102 185
e 102 129
e 103 199
e 104 186
e 108 112
e 109 181
e 110 182
e 112 182
e 112 128
e 115 193
e 115 177
e 116 160
e 117 120
e 118 173
e 119 154
e 119 203
e 120 183
e 121 211
e 123 152
e 125 209
e 127 202
e 129 198
e 129 188
e 130 167
e 130 218
e 133 171
e 133 137
e 134 215
e 137 175
e 138 163
e 139 164
e 140 188
e 141 171
e 142 216
e 142 192
e 143 209
e 144 167
e 148 201
e 148 212
e 148 197
e 150 188
e 151 190
e 155 170
e 156 192
e 157 200
e 158 162
e 159 206
e 160 215
e 161 206
e 162 178
e 165 201
e 166 184
e 168 214
e 176 215
e 181 184
e 183 207
e 187 206
e 188 202
e 189 218
e 191 197
e 194 203
e 195 219
e 199 208
e 206 219
